p cnf 200 1110
-101 58 0
-101 -16 0
-101 28 0
-101 2 0
-101 65 0
-101 -72 0
-101 -8 0
-101 -9 0
-101 67 0
-101 -63 0
101 -58 16 -28 -2 -65 72 8 9 -67 63 0
-102 -63 0
-102 -17 0
-102 31 0
-102 56 0
-102 -94 0
-102 82 0
-102 -65 0
-102 -40 0
-102 -75 0
-102 -12 0
102 63 17 -31 -56 94 -82 65 40 75 12 0
-103 -11 0
-103 -5 0
-103 64 0
-103 35 0
-103 53 0
-103 88 0
-103 4 0
-103 9 0
-103 -73 0
-103 -95 0
103 11 5 -64 -35 -53 -88 -4 -9 73 95 0
-104 -28 0
-104 -34 0
-104 -79 0
-104 -20 0
-104 -31 0
-104 43 0
-104 -42 0
-104 44 0
-104 -33 0
-104 3 0
104 28 34 79 20 31 -43 42 -44 33 -3 0
-105 -32 0
-105 -24 0
-105 -51 0
-105 -13 0
-105 -78 0
-105 -54 0
-105 -73 0
-105 -27 0
-105 -85 0
-105 72 0
105 32 24 51 13 78 54 73 27 85 -72 0
-106 18 0
-106 -19 0
-106 53 0
-106 -24 0
-106 59 0
-106 -29 0
-106 61 0
-106 -94 0
-106 -36 0
-106 67 0
106 -18 19 -53 24 -59 29 -61 94 36 -67 0
-107 84 0
-107 93 0
-107 -25 0
-107 -19 0
-107 13 0
-107 65 0
-107 41 0
-107 72 0
-107 68 0
-107 50 0
107 -84 -93 25 19 -13 -65 -41 -72 -68 -50 0
-108 6 0
-108 45 0
-108 75 0
-108 31 0
-108 58 0
-108 44 0
-108 -25 0
-108 47 0
-108 63 0
-108 8 0
108 -6 -45 -75 -31 -58 -44 25 -47 -63 -8 0
-109 37 0
-109 -39 0
-109 92 0
-109 46 0
-109 -56 0
-109 -81 0
-109 -5 0
-109 87 0
-109 94 0
-109 42 0
109 -37 39 -92 -46 56 81 5 -87 -94 -42 0
-110 -46 0
-110 100 0
-110 -72 0
-110 40 0
-110 28 0
-110 52 0
-110 -29 0
-110 -45 0
-110 -78 0
-110 -34 0
110 46 -100 72 -40 -28 -52 29 45 78 34 0
101 102 103 104 105 106 107 108 109 110 0
-111 -57 0
-111 -96 0
-111 -66 0
-111 17 0
-111 -22 0
-111 79 0
-111 -39 0
-111 -8 0
-111 46 0
-111 36 0
111 57 96 66 -17 22 -79 39 8 -46 -36 0
-112 -81 0
-112 -41 0
-112 93 0
-112 27 0
-112 84 0
-112 86 0
-112 -44 0
-112 99 0
-112 -60 0
-112 -43 0
112 81 41 -93 -27 -84 -86 44 -99 60 43 0
-113 -77 0
-113 -67 0
-113 13 0
-113 -49 0
-113 76 0
-113 -4 0
-113 79 0
-113 -27 0
-113 58 0
-113 -73 0
113 77 67 -13 49 -76 4 -79 27 -58 73 0
-114 87 0
-114 49 0
-114 65 0
-114 -89 0
-114 36 0
-114 15 0
-114 -21 0
-114 60 0
-114 38 0
-114 -50 0
114 -87 -49 -65 89 -36 -15 21 -60 -38 50 0
-115 17 0
-115 1 0
-115 22 0
-115 67 0
-115 -39 0
-115 -16 0
-115 -43 0
-115 -66 0
-115 63 0
-115 9 0
115 -17 -1 -22 -67 39 16 43 66 -63 -9 0
-116 37 0
-116 -87 0
-116 36 0
-116 -91 0
-116 6 0
-116 4 0
-116 97 0
-116 58 0
-116 35 0
-116 -84 0
116 -37 87 -36 91 -6 -4 -97 -58 -35 84 0
-117 -69 0
-117 -57 0
-117 7 0
-117 -20 0
-117 79 0
-117 16 0
-117 -97 0
-117 -38 0
-117 50 0
-117 87 0
117 69 57 -7 20 -79 -16 97 38 -50 -87 0
-118 -68 0
-118 41 0
-118 -57 0
-118 -88 0
-118 -45 0
-118 42 0
-118 11 0
-118 -36 0
-118 -13 0
-118 -9 0
118 68 -41 57 88 45 -42 -11 36 13 9 0
-119 -63 0
-119 10 0
-119 -62 0
-119 84 0
-119 -57 0
-119 -93 0
-119 -85 0
-119 34 0
-119 39 0
-119 91 0
119 63 -10 62 -84 57 93 85 -34 -39 -91 0
-120 59 0
-120 -49 0
-120 21 0
-120 68 0
-120 -63 0
-120 44 0
-120 -69 0
-120 -62 0
-120 41 0
-120 -45 0
120 -59 49 -21 -68 63 -44 69 62 -41 45 0
111 112 113 114 115 116 117 118 119 120 0
-121 44 0
-121 -11 0
-121 -52 0
-121 -88 0
-121 49 0
-121 98 0
-121 43 0
-121 40 0
-121 -92 0
-121 23 0
121 -44 11 52 88 -49 -98 -43 -40 92 -23 0
-122 -18 0
-122 8 0
-122 55 0
-122 -70 0
-122 79 0
-122 -9 0
-122 -11 0
-122 -82 0
-122 75 0
-122 -31 0
122 18 -8 -55 70 -79 9 11 82 -75 31 0
-123 1 0
-123 -3 0
-123 -86 0
-123 -27 0
-123 -18 0
-123 84 0
-123 36 0
-123 -45 0
-123 64 0
-123 -42 0
123 -1 3 86 27 18 -84 -36 45 -64 42 0
-124 96 0
-124 87 0
-124 54 0
-124 -10 0
-124 40 0
-124 56 0
-124 95 0
-124 75 0
-124 66 0
-124 -29 0
124 -96 -87 -54 10 -40 -56 -95 -75 -66 29 0
-125 -99 0
-125 -5 0
-125 -40 0
-125 -19 0
-125 64 0
-125 62 0
-125 -81 0
-125 -10 0
-125 21 0
-125 -25 0
125 99 5 40 19 -64 -62 81 10 -21 25 0
-126 -45 0
-126 -71 0
-126 -42 0
-126 -61 0
-126 -32 0
-126 -86 0
-126 78 0
-126 -62 0
-126 -23 0
-126 88 0
126 45 71 42 61 32 86 -78 62 23 -88 0
-127 55 0
-127 -39 0
-127 73 0
-127 -50 0
-127 -93 0
-127 -56 0
-127 -11 0
-127 -72 0
-127 -18 0
-127 -78 0
127 -55 39 -73 50 93 56 11 72 18 78 0
-128 -76 0
-128 42 0
-128 19 0
-128 -2 0
-128 97 0
-128 -66 0
-128 17 0
-128 53 0
-128 -1 0
-128 -35 0
128 76 -42 -19 2 -97 66 -17 -53 1 35 0
-129 -73 0
-129 78 0
-129 30 0
-129 39 0
-129 88 0
-129 41 0
-129 33 0
-129 77 0
-129 67 0
-129 -45 0
129 73 -78 -30 -39 -88 -41 -33 -77 -67 45 0
-130 82 0
-130 -15 0
-130 95 0
-130 55 0
-130 69 0
-130 53 0
-130 25 0
-130 -28 0
-130 -29 0
-130 12 0
130 -82 15 -95 -55 -69 -53 -25 28 29 -12 0
121 122 123 124 125 126 127 128 129 130 0
-131 -5 0
-131 -86 0
-131 38 0
-131 44 0
-131 -57 0
-131 -35 0
-131 -43 0
-131 16 0
-131 -30 0
-131 51 0
131 5 86 -38 -44 57 35 43 -16 30 -51 0
-132 57 0
-132 78 0
-132 -1 0
-132 52 0
-132 9 0
-132 -3 0
-132 95 0
-132 -49 0
-132 -18 0
-132 -32 0
132 -57 -78 1 -52 -9 3 -95 49 18 32 0
-133 -73 0
-133 19 0
-133 -10 0
-133 69 0
-133 60 0
-133 53 0
-133 30 0
-133 -75 0
-133 -5 0
-133 -49 0
133 73 -19 10 -69 -60 -53 -30 75 5 49 0
-134 -10 0
-134 -66 0
-134 65 0
-134 26 0
-134 2 0
-134 100 0
-134 -74 0
-134 -76 0
-134 -13 0
-134 84 0
134 10 66 -65 -26 -2 -100 74 76 13 -84 0
-135 -27 0
-135 -61 0
-135 -26 0
-135 80 0
-135 -51 0
-135 31 0
-135 -25 0
-135 -38 0
-135 -87 0
-135 -10 0
135 27 61 26 -80 51 -31 25 38 87 10 0
-136 -38 0
-136 26 0
-136 -78 0
-136 82 0
-136 10 0
-136 97 0
-136 68 0
-136 -95 0
-136 -63 0
-136 -59 0
136 38 -26 78 -82 -10 -97 -68 95 63 59 0
-137 44 0
-137 60 0
-137 28 0
-137 -86 0
-137 71 0
-137 -80 0
-137 -62 0
-137 76 0
-137 67 0
-137 -63 0
137 -44 -60 -28 86 -71 80 62 -76 -67 63 0
-138 15 0
-138 -29 0
-138 -82 0
-138 -12 0
-138 39 0
-138 21 0
-138 74 0
-138 -32 0
-138 89 0
-138 34 0
138 -15 29 82 12 -39 -21 -74 32 -89 -34 0
-139 3 0
-139 90 0
-139 82 0
-139 -16 0
-139 -25 0
-139 -80 0
-139 -45 0
-139 -86 0
-139 9 0
-139 -100 0
139 -3 -90 -82 16 25 80 45 86 -9 100 0
-140 -40 0
-140 -7 0
-140 35 0
-140 -16 0
-140 -85 0
-140 -50 0
-140 -2 0
-140 -4 0
-140 -69 0
-140 88 0
140 40 7 -35 16 85 50 2 4 69 -88 0
131 132 133 134 135 136 137 138 139 140 0
-141 28 0
-141 74 0
-141 48 0
-141 30 0
-141 -4 0
-141 -39 0
-141 57 0
-141 -40 0
-141 -81 0
-141 -69 0
141 -28 -74 -48 -30 4 39 -57 40 81 69 0
-142 68 0
-142 33 0
-142 -57 0
-142 77 0
-142 99 0
-142 12 0
-142 -85 0
-142 69 0
-142 -42 0
-142 -5 0
142 -68 -33 57 -77 -99 -12 85 -69 42 5 0
-143 -9 0
-143 50 0
-143 -47 0
-143 -94 0
-143 3 0
-143 39 0
-143 56 0
-143 -4 0
-143 -8 0
-143 -79 0
143 9 -50 47 94 -3 -39 -56 4 8 79 0
-144 -37 0
-144 86 0
-144 68 0
-144 27 0
-144 21 0
-144 29 0
-144 -49 0
-144 1 0
-144 45 0
-144 70 0
144 37 -86 -68 -27 -21 -29 49 -1 -45 -70 0
-145 41 0
-145 -66 0
-145 -65 0
-145 -13 0
-145 -71 0
-145 -77 0
-145 100 0
-145 67 0
-145 25 0
-145 64 0
145 -41 66 65 13 71 77 -100 -67 -25 -64 0
-146 92 0
-146 -8 0
-146 -33 0
-146 -13 0
-146 3 0
-146 78 0
-146 47 0
-146 -71 0
-146 55 0
-146 -80 0
146 -92 8 33 13 -3 -78 -47 71 -55 80 0
-147 -88 0
-147 40 0
-147 86 0
-147 99 0
-147 -57 0
-147 -9 0
-147 65 0
-147 60 0
-147 48 0
-147 -58 0
147 88 -40 -86 -99 57 9 -65 -60 -48 58 0
-148 -13 0
-148 -71 0
-148 -65 0
-148 -45 0
-148 37 0
-148 73 0
-148 2 0
-148 67 0
-148 85 0
-148 66 0
148 13 71 65 45 -37 -73 -2 -67 -85 -66 0
-149 11 0
-149 82 0
-149 -74 0
-149 -87 0
-149 -19 0
-149 -63 0
-149 -18 0
-149 -45 0
-149 -40 0
-149 -73 0
149 -11 -82 74 87 19 63 18 45 40 73 0
-150 44 0
-150 60 0
-150 -58 0
-150 84 0
-150 6 0
-150 16 0
-150 32 0
-150 -70 0
-150 -61 0
-150 55 0
150 -44 -60 58 -84 -6 -16 -32 70 61 -55 0
141 142 143 144 145 146 147 148 149 150 0
-151 -68 0
-151 88 0
-151 -78 0
-151 -34 0
-151 -3 0
-151 -84 0
-151 69 0
-151 50 0
-151 30 0
-151 35 0
151 68 -88 78 34 3 84 -69 -50 -30 -35 0
-152 31 0
-152 17 0
-152 20 0
-152 -93 0
-152 -36 0
-152 99 0
-152 -39 0
-152 48 0
-152 -35 0
-152 74 0
152 -31 -17 -20 93 36 -99 39 -48 35 -74 0
-153 -95 0
-153 62 0
-153 73 0
-153 -54 0
-153 60 0
-153 -33 0
-153 34 0
-153 -78 0
-153 63 0
-153 -65 0
153 95 -62 -73 54 -60 33 -34 78 -63 65 0
-154 -37 0
-154 53 0
-154 49 0
-154 -21 0
-154 -52 0
-154 -78 0
-154 3 0
-154 -97 0
-154 57 0
-154 95 0
154 37 -53 -49 21 52 78 -3 97 -57 -95 0
-155 -74 0
-155 -5 0
-155 53 0
-155 -54 0
-155 -96 0
-155 80 0
-155 12 0
-155 6 0
-155 40 0
-155 69 0
155 74 5 -53 54 96 -80 -12 -6 -40 -69 0
-156 -87 0
-156 47 0
-156 -34 0
-156 85 0
-156 -12 0
-156 81 0
-156 -44 0
-156 -10 0
-156 13 0
-156 -80 0
156 87 -47 34 -85 12 -81 44 10 -13 80 0
-157 6 0
-157 5 0
-157 61 0
-157 -70 0
-157 98 0
-157 16 0
-157 -37 0
-157 -75 0
-157 -24 0
-157 49 0
157 -6 -5 -61 70 -98 -16 37 75 24 -49 0
-158 -40 0
-158 88 0
-158 15 0
-158 -93 0
-158 10 0
-158 16 0
-158 37 0
-158 25 0
-158 -96 0
-158 -42 0
158 40 -88 -15 93 -10 -16 -37 -25 96 42 0
-159 -3 0
-159 47 0
-159 -94 0
-159 96 0
-159 14 0
-159 57 0
-159 31 0
-159 -36 0
-159 -78 0
-159 -93 0
159 3 -47 94 -96 -14 -57 -31 36 78 93 0
-160 -72 0
-160 -98 0
-160 -74 0
-160 11 0
-160 -49 0
-160 60 0
-160 65 0
-160 -22 0
-160 -18 0
-160 -92 0
160 72 98 74 -11 49 -60 -65 22 18 92 0
151 152 153 154 155 156 157 158 159 160 0
-161 -83 0
-161 -23 0
-161 50 0
-161 3 0
-161 -98 0
-161 88 0
-161 62 0
-161 30 0
-161 19 0
-161 72 0
161 83 23 -50 -3 98 -88 -62 -30 -19 -72 0
-162 -80 0
-162 -18 0
-162 65 0
-162 -45 0
-162 67 0
-162 7 0
-162 57 0
-162 -28 0
-162 68 0
-162 56 0
162 80 18 -65 45 -67 -7 -57 28 -68 -56 0
-163 -41 0
-163 100 0
-163 9 0
-163 15 0
-163 -10 0
-163 97 0
-163 -88 0
-163 25 0
-163 -16 0
-163 37 0
163 41 -100 -9 -15 10 -97 88 -25 16 -37 0
-164 52 0
-164 80 0
-164 -13 0
-164 97 0
-164 -67 0
-164 -23 0
-164 -6 0
-164 32 0
-164 78 0
-164 -68 0
164 -52 -80 13 -97 67 23 6 -32 -78 68 0
-165 44 0
-165 -74 0
-165 36 0
-165 34 0
-165 -47 0
-165 -69 0
-165 70 0
-165 50 0
-165 -18 0
-165 16 0
165 -44 74 -36 -34 47 69 -70 -50 18 -16 0
-166 92 0
-166 46 0
-166 33 0
-166 95 0
-166 18 0
-166 37 0
-166 -97 0
-166 -3 0
-166 -35 0
-166 -20 0
166 -92 -46 -33 -95 -18 -37 97 3 35 20 0
-167 -91 0
-167 -68 0
-167 -9 0
-167 -35 0
-167 -29 0
-167 89 0
-167 -47 0
-167 60 0
-167 -70 0
-167 -1 0
167 91 68 9 35 29 -89 47 -60 70 1 0
-168 77 0
-168 2 0
-168 -25 0
-168 -45 0
-168 -91 0
-168 90 0
-168 -99 0
-168 67 0
-168 -93 0
-168 61 0
168 -77 -2 25 45 91 -90 99 -67 93 -61 0
-169 -100 0
-169 1 0
-169 -28 0
-169 12 0
-169 62 0
-169 -59 0
-169 39 0
-169 87 0
-169 -69 0
-169 -68 0
169 100 -1 28 -12 -62 59 -39 -87 69 68 0
-170 -30 0
-170 90 0
-170 75 0
-170 -1 0
-170 70 0
-170 82 0
-170 17 0
-170 35 0
-170 54 0
-170 -32 0
170 30 -90 -75 1 -70 -82 -17 -35 -54 32 0
161 162 163 164 165 166 167 168 169 170 0
-171 33 0
-171 -3 0
-171 -11 0
-171 -29 0
-171 89 0
-171 57 0
-171 -14 0
-171 -24 0
-171 -65 0
-171 -15 0
171 -33 3 11 29 -89 -57 14 24 65 15 0
-172 2 0
-172 30 0
-172 98 0
-172 -87 0
-172 40 0
-172 -60 0
-172 -81 0
-172 -43 0
-172 67 0
-172 -90 0
172 -2 -30 -98 87 -40 60 81 43 -67 90 0
-173 -32 0
-173 -15 0
-173 90 0
-173 6 0
-173 95 0
-173 27 0
-173 -97 0
-173 -20 0
-173 -36 0
-173 66 0
173 32 15 -90 -6 -95 -27 97 20 36 -66 0
-174 -12 0
-174 -52 0
-174 -62 0
-174 -87 0
-174 32 0
-174 22 0
-174 5 0
-174 -4 0
-174 -64 0
-174 -72 0
174 12 52 62 87 -32 -22 -5 4 64 72 0
-175 -16 0
-175 74 0
-175 36 0
-175 70 0
-175 -4 0
-175 61 0
-175 24 0
-175 -64 0
-175 -87 0
-175 -66 0
175 16 -74 -36 -70 4 -61 -24 64 87 66 0
-176 66 0
-176 -71 0
-176 -55 0
-176 47 0
-176 -63 0
-176 61 0
-176 -42 0
-176 -92 0
-176 70 0
-176 -16 0
176 -66 71 55 -47 63 -61 42 92 -70 16 0
-177 -69 0
-177 46 0
-177 8 0
-177 26 0
-177 -89 0
-177 -14 0
-177 28 0
-177 91 0
-177 -10 0
-177 93 0
177 69 -46 -8 -26 89 14 -28 -91 10 -93 0
-178 92 0
-178 -61 0
-178 -36 0
-178 82 0
-178 38 0
-178 74 0
-178 -68 0
-178 58 0
-178 -76 0
-178 53 0
178 -92 61 36 -82 -38 -74 68 -58 76 -53 0
-179 63 0
-179 15 0
-179 67 0
-179 -9 0
-179 47 0
-179 -86 0
-179 71 0
-179 7 0
-179 -19 0
-179 12 0
179 -63 -15 -67 9 -47 86 -71 -7 19 -12 0
-180 17 0
-180 -48 0
-180 87 0
-180 67 0
-180 95 0
-180 -37 0
-180 -73 0
-180 -42 0
-180 -43 0
-180 68 0
180 -17 48 -87 -67 -95 37 73 42 43 -68 0
171 172 173 174 175 176 177 178 179 180 0
-181 -68 0
-181 -2 0
-181 89 0
-181 13 0
-181 71 0
-181 -27 0
-181 -64 0
-181 42 0
-181 -39 0
-181 12 0
181 68 2 -89 -13 -71 27 64 -42 39 -12 0
-182 -67 0
-182 -61 0
-182 55 0
-182 -43 0
-182 -18 0
-182 8 0
-182 -16 0
-182 47 0
-182 -22 0
-182 -42 0
182 67 61 -55 43 18 -8 16 -47 22 42 0
-183 10 0
-183 -82 0
-183 94 0
-183 -25 0
-183 67 0
-183 76 0
-183 95 0
-183 29 0
-183 92 0
-183 -61 0
183 -10 82 -94 25 -67 -76 -95 -29 -92 61 0
-184 -4 0
-184 -83 0
-184 33 0
-184 -96 0
-184 38 0
-184 43 0
-184 13 0
-184 -52 0
-184 17 0
-184 37 0
184 4 83 -33 96 -38 -43 -13 52 -17 -37 0
-185 87 0
-185 -91 0
-185 -24 0
-185 -51 0
-185 -13 0
-185 -69 0
-185 -68 0
-185 -9 0
-185 61 0
-185 45 0
185 -87 91 24 51 13 69 68 9 -61 -45 0
-186 85 0
-186 83 0
-186 -23 0
-186 31 0
-186 51 0
-186 79 0
-186 -27 0
-186 39 0
-186 6 0
-186 59 0
186 -85 -83 23 -31 -51 -79 27 -39 -6 -59 0
-187 -80 0
-187 -40 0
-187 1 0
-187 -30 0
-187 83 0
-187 -93 0
-187 -19 0
-187 -76 0
-187 -52 0
-187 -59 0
187 80 40 -1 30 -83 93 19 76 52 59 0
-188 -25 0
-188 -97 0
-188 -68 0
-188 88 0
-188 64 0
-188 17 0
-188 49 0
-188 9 0
-188 -33 0
-188 -87 0
188 25 97 68 -88 -64 -17 -49 -9 33 87 0
-189 -27 0
-189 53 0
-189 23 0
-189 25 0
-189 -32 0
-189 -79 0
-189 -98 0
-189 64 0
-189 41 0
-189 -47 0
189 27 -53 -23 -25 32 79 98 -64 -41 47 0
-190 -15 0
-190 58 0
-190 -94 0
-190 -77 0
-190 66 0
-190 -50 0
-190 17 0
-190 -92 0
-190 -14 0
-190 -61 0
190 15 -58 94 77 -66 50 -17 92 14 61 0
181 182 183 184 185 186 187 188 189 190 0
-191 -60 0
-191 96 0
-191 29 0
-191 89 0
-191 -78 0
-191 -84 0
-191 -92 0
-191 -38 0
-191 -71 0
-191 10 0
191 60 -96 -29 -89 78 84 92 38 71 -10 0
-192 -74 0
-192 -35 0
-192 11 0
-192 -38 0
-192 7 0
-192 58 0
-192 -75 0
-192 43 0
-192 15 0
-192 -67 0
192 74 35 -11 38 -7 -58 75 -43 -15 67 0
-193 -84 0
-193 -100 0
-193 -26 0
-193 -19 0
-193 65 0
-193 -62 0
-193 -1 0
-193 -2 0
-193 28 0
-193 -20 0
193 84 100 26 19 -65 62 1 2 -28 20 0
-194 -61 0
-194 41 0
-194 72 0
-194 97 0
-194 -39 0
-194 -56 0
-194 1 0
-194 45 0
-194 42 0
-194 -40 0
194 61 -41 -72 -97 39 56 -1 -45 -42 40 0
-195 54 0
-195 47 0
-195 -23 0
-195 90 0
-195 53 0
-195 71 0
-195 37 0
-195 69 0
-195 46 0
-195 89 0
195 -54 -47 23 -90 -53 -71 -37 -69 -46 -89 0
-196 -81 0
-196 32 0
-196 -72 0
-196 20 0
-196 10 0
-196 -57 0
-196 -2 0
-196 16 0
-196 17 0
-196 75 0
196 81 -32 72 -20 -10 57 2 -16 -17 -75 0
-197 91 0
-197 44 0
-197 -98 0
-197 20 0
-197 13 0
-197 89 0
-197 -84 0
-197 -59 0
-197 58 0
-197 -52 0
197 -91 -44 98 -20 -13 -89 84 59 -58 52 0
-198 32 0
-198 82 0
-198 17 0
-198 -6 0
-198 42 0
-198 49 0
-198 -13 0
-198 -99 0
-198 79 0
-198 73 0
198 -32 -82 -17 6 -42 -49 13 99 -79 -73 0
-199 86 0
-199 78 0
-199 -57 0
-199 33 0
-199 -45 0
-199 -14 0
-199 26 0
-199 -72 0
-199 64 0
-199 17 0
199 -86 -78 57 -33 45 14 -26 72 -64 -17 0
-200 44 0
-200 7 0
-200 -99 0
-200 -47 0
-200 1 0
-200 -76 0
-200 -52 0
-200 2 0
-200 92 0
-200 -74 0
200 -44 -7 99 47 -1 76 52 -2 -92 74 0
191 192 193 194 195 196 197 198 199 200 0
